     0     0    91   181    10    10
    -5    11   159   249    10    10
    -7     4   210   300    20    10
    13   -17   263   353    20    10
     3     1    84   174    20    10
     1     1   183   273    10    10
   -26    12   218   308    20    10
    14   -15   266   356    20    10
   -20    21   324   414    10    10
     2   -12   348   438    10    10
    14   -15   251   341    20    10
     0     0   211   301    20    10
    -1    -1   125   215    20    10
    17     1   347   437    10    10
    -2    -2   120   210    20    10
    16    19
    -7    21
   -20    -6
     3   -23
     9   -20
    38     2
